NAME : traveling-santa-2018-prime-paths.28456.tour
COMMENT : Length = 28456
COMMENT : Found by LKH [Keld Helsgaun] Sun Jun 12 20:00:15 2022
TYPE : TOUR
DIMENSION : 100
TOUR_SECTION
1
18
88
13
42
26
83
75
58
91
77
89
23
95
28
65
62
93
14
56
8
53
29
33
46
50
73
60
21
57
94
25
96
98
22
84
40
4
74
16
19
76
17
30
41
37
24
7
69
32
15
99
80
39
67
49
97
48
92
10
52
31
43
9
68
86
55
35
64
79
85
61
81
66
36
45
87
27
34
6
100
20
90
2
70
38
82
59
3
63
44
5
11
72
78
54
71
51
12
47
-1
EOF
